qbf_easy_train/easy_3615_SAT.qdimacs
p cnf 19 41
a 9 1 0
e 2 3 4 5 6 7 8 10 11 12 13 14 15 16 17 18 19 0
-1 2 -3 0
1 -2 -3 0
-1 -2 3 0
1 2 3 0
-4 -5 -6 0
4 5 -6 0
-4 5 6 0
4 -5 6 0
6 -5 -7 0
-6 5 -7 0
6 5 7 0
-6 -5 7 0
-8 -3 0
-8 -7 0
3 7 8 0
11 9 0
11 -10 0
-9 10 -11 0
13 -12 0
13 -5 0
12 5 -13 0
-14 -11 0
-14 13 0
11 -13 14 0
8 14 -15 0
-8 -14 -15 0
8 -14 15 0
-8 14 15 0
17 10 0
17 -10 0
-18 16 0
-18 -17 0
-16 17 18 0
19 -15 0
19 -18 0
15 18 -19 0
11 -13 -12 -10 0
-18 17 -19 0
-9 6 -2 0
14 18 19 13 6 3 10 0
19 0
