sat_easy_train/easy_3615_SAT.dimacs
p cnf 107 348
-3 1 0
-3 2 0
-1 -2 3 0
-6 4 0
-6 -5 0
-4 5 6 0
3 -6 -7 0
-3 6 -7 0
3 6 7 0
-3 -6 7 0
8 9 -10 0
-8 -9 -10 0
8 -9 10 0
-8 9 10 0
12 11 0
12 -5 0
-11 5 -12 0
-12 13 -14 0
12 -13 -14 0
-12 -13 14 0
12 13 14 0
-15 5 0
-15 -14 0
-5 14 15 0
-16 -10 0
-16 -15 0
10 15 16 0
-17 7 0
-17 -16 0
-7 16 17 0
-18 13 0
-18 -5 0
-13 5 18 0
19 -4 0
19 18 0
4 -18 -19 0
21 1 0
21 -20 0
-1 20 -21 0
22 19 0
22 -21 0
-19 21 -22 0
23 -17 0
23 22 0
17 -22 -23 0
1 5 -24 0
-1 -5 -24 0
1 -5 24 0
-1 5 24 0
-26 24 0
-26 -25 0
-24 25 26 0
28 -4 0
28 -27 0
4 27 -28 0
-30 -29 0
-30 -1 0
29 1 30 0
-31 32 -33 0
31 -32 -33 0
-31 -32 33 0
31 32 33 0
-33 9 -34 0
33 -9 -34 0
-33 -9 34 0
33 9 34 0
35 30 0
35 -34 0
-30 34 -35 0
-35 14 -36 0
35 -14 -36 0
-35 -14 36 0
35 14 36 0
28 -36 -37 0
-28 36 -37 0
28 36 37 0
-28 -36 37 0
-38 -26 0
-38 -37 0
26 37 38 0
-39 7 0
-39 -21 0
-7 21 39 0
-3 13 -40 0
3 -13 -40 0
-3 -13 40 0
3 13 40 0
-41 4 0
-41 40 0
-4 -40 41 0
-39 41 -42 0
39 -41 -42 0
-39 -41 42 0
39 41 42 0
43 -38 0
43 -42 0
38 42 -43 0
44 33 0
44 -12 0
-33 12 -44 0
-2 40 -45 0
2 -40 -45 0
-2 -40 45 0
2 40 45 0
-12 3 -46 0
12 -3 -46 0
-12 -3 46 0
12 3 46 0
-47 -45 0
-47 46 0
45 -46 47 0
-48 -40 0
-48 47 0
40 -47 48 0
-4 48 -49 0
4 -48 -49 0
-4 -48 49 0
4 48 49 0
-49 -9 -50 0
49 9 -50 0
-49 9 50 0
49 -9 50 0
51 44 0
51 -50 0
-44 50 -51 0
52 43 0
52 51 0
-43 -51 -52 0
32 -53 -54 0
-32 53 -54 0
32 53 54 0
-32 -53 54 0
55 -54 0
55 -34 0
54 34 -55 0
-56 45 0
-56 55 0
-45 -55 56 0
57 -15 0
57 -53 0
15 53 -57 0
-58 -40 0
-58 19 0
40 -19 58 0
59 -57 0
59 -58 0
57 58 -59 0
-60 -56 0
-60 59 0
56 -59 60 0
34 -61 0
-34 -61 0
-62 61 0
-62 24 0
-61 -24 62 0
-63 62 0
-63 -29 0
-62 29 63 0
63 34 -64 0
-63 -34 -64 0
63 -34 64 0
-63 34 64 0
13 29 -65 0
-13 -29 -65 0
13 -29 65 0
-13 29 65 0
-66 40 0
-66 -65 0
-40 65 66 0
-67 -64 0
-67 66 0
64 -66 67 0
60 -67 -68 0
-60 67 -68 0
60 67 68 0
-60 -67 68 0
-69 -52 0
-69 -68 0
52 68 69 0
-23 -69 -70 0
23 69 -70 0
-23 69 70 0
23 -69 70 0
-71 -62 0
-71 13 0
62 -13 71 0
72 14 0
72 35 0
-14 -35 -72 0
72 63 -73 0
-72 -63 -73 0
72 -63 73 0
-72 63 73 0
-74 30 0
-74 -11 0
-30 11 74 0
16 74 -75 0
-16 -74 -75 0
16 -74 75 0
-16 74 75 0
75 -55 -76 0
-75 55 -76 0
75 55 76 0
-75 -55 76 0
78 77 0
78 -15 0
-77 15 -78 0
79 78 0
79 47 0
-78 -47 -79 0
-80 76 0
-80 -79 0
-76 79 80 0
-81 73 0
-81 80 0
-73 -80 81 0
82 -71 0
82 -81 0
71 81 -82 0
83 32 0
83 -15 0
-32 15 -83 0
-6 16 -84 0
6 -16 -84 0
-6 -16 84 0
6 16 84 0
-78 -3 -85 0
78 3 -85 0
-78 3 85 0
78 -3 85 0
84 -85 -86 0
-84 85 -86 0
84 85 86 0
-84 -85 86 0
87 83 0
87 86 0
-83 -86 -87 0
88 74 0
88 41 0
-74 -41 -88 0
-89 15 0
-89 -18 0
-15 18 89 0
-90 -40 0
-90 1 0
40 -1 90 0
-91 -12 0
-91 -49 0
12 49 91 0
-90 91 -92 0
90 -91 -92 0
-90 -91 92 0
90 91 92 0
-15 -92 -93 0
15 92 -93 0
-15 92 93 0
15 -92 93 0
-94 89 0
-94 -93 0
-89 93 94 0
-88 -94 -95 0
88 94 -95 0
-88 94 95 0
88 -94 95 0
87 95 -96 0
-87 -95 -96 0
87 -95 96 0
-87 95 96 0
-97 61 0
-97 -13 0
-61 13 97 0
98 65 0
98 29 0
-65 -29 -98 0
-99 -97 0
-99 98 0
97 -98 99 0
-31 77 -100 0
31 -77 -100 0
-31 -77 100 0
31 77 100 0
14 100 -101 0
-14 -100 -101 0
14 -100 101 0
-14 100 101 0
-102 -5 0
-102 5 0
103 -101 0
103 -102 0
101 102 -103 0
104 -99 0
104 103 0
99 -103 -104 0
105 -96 0
105 104 0
96 -104 -105 0
-106 -82 0
-106 105 0
82 -105 106 0
-107 70 0
-107 106 0
-70 -106 107 0
-10 -8 32 0
16 -29 -85 0
96 52 22 -58 0
-15 -54 80 -47 34 86 0
-16 61 41 -100 0
-78 65 69 0
-26 33 100 -42 5 0
-104 -87 0
42 -84 0
-89 86 -24 0
-28 1 -58 -36 0
-72 -3 82 0
-82 -5 60 0
81 55 -39 21 68 96 0
71 -89 0
70 -80 -46 -5 84 -49 0
2 -99 72 -83 -81 0
83 11 -2 52 0
-2 37 0
40 -37 -7 -43 0
-87 36 -35 0
52 2 0
32 -53 104 -35 -27 18 0
31 -21 -90 70 0
3 -96 0
-98 19 47 72 -27 12 0
-27 -9 -46 0
-12 7 -104 42 94 57 0
-85 97 -101 60 15 0
-29 10 -90 84 -100 0
59 42 -16 66 1 0
55 -13 -5 26 -103 79 0
71 -55 75 -70 54 0
75 -102 -12 58 10 20 0
-1 -107 101 -71 -86 -57 0
-46 9 106 0
86 62 -12 43 -1 36 0
-13 79 81 2 -38 -36 0
94 93 72 0
-56 -16 0
-13 42 0
18 4 -101 0
-107 41 59 -55 0
78 42 5 0
42 68 -52 -105 100 0
107 0
